
Gurobi 7.0.1 (win64, Java) logging started 04/10/19 17:14:37

Optimize a model with 0 rows, 0 columns and 0 nonzeros
Coefficient statistics:
  Matrix range     [0e+00, 0e+00]
  Objective range  [0e+00, 0e+00]
  Bounds range     [0e+00, 0e+00]
  RHS range        [0e+00, 0e+00]
Iteration    Objective       Primal Inf.    Dual Inf.      Time
       0   -0.0000000e+00   0.000000e+00   0.000000e+00      0s

Solved in 0 iterations and 0.00 seconds
Optimal objective -0.000000000e+00
Optimize a model with 0 rows, 0 columns and 0 nonzeros
Coefficient statistics:
  Matrix range     [0e+00, 0e+00]
  Objective range  [0e+00, 0e+00]
  Bounds range     [0e+00, 0e+00]
  RHS range        [0e+00, 0e+00]

Solved in 0 iterations and 0.00 seconds
Optimal objective -0.000000000e+00

Gurobi 7.0.1 (win64, Java) logging started 04/10/19 17:16:24

Optimize a model with 6 rows, 1 columns and 1 nonzeros
Coefficient statistics:
  Matrix range     [1e+00, 1e+00]
  Objective range  [0e+00, 0e+00]
  Bounds range     [0e+00, 0e+00]
  RHS range        [1e+00, 1e+00]
Iteration    Objective       Primal Inf.    Dual Inf.      Time
       0   -0.0000000e+00   0.000000e+00   0.000000e+00      0s

Solved in 0 iterations and 0.00 seconds
Optimal objective -0.000000000e+00
Optimize a model with 6 rows, 2 columns and 6 nonzeros
Coefficient statistics:
  Matrix range     [1e+00, 1e+00]
  Objective range  [8e+05, 8e+05]
  Bounds range     [0e+00, 0e+00]
  RHS range        [1e+00, 1e+00]
Iteration    Objective       Primal Inf.    Dual Inf.      Time
       0    7.8104738e+35   5.000000e+30   7.810474e+05      0s
       1    7.8104738e+05   0.000000e+00   0.000000e+00      0s

Solved in 1 iterations and 0.00 seconds
Optimal objective  7.810473750e+05
Warning: variable name "lambda_0 1" has a space
Warning: to let Gurobi read it back, use rlp format
Optimize a model with 6 rows, 2 columns and 6 nonzeros
Coefficient statistics:
  Matrix range     [1e+00, 1e+00]
  Objective range  [8e+05, 8e+05]
  Bounds range     [0e+00, 0e+00]
  RHS range        [1e+00, 1e+00]

Solved in 1 iterations and 0.00 seconds
Optimal objective  7.810473750e+05
Warning: variable name "lambda_0 1" has a space
Warning: to let Gurobi read it back, use rlp format

Gurobi 7.0.1 (win64, Java) logging started 04/10/19 17:16:54

Optimize a model with 7 rows, 2 columns and 2 nonzeros
Coefficient statistics:
  Matrix range     [1e+00, 1e+00]
  Objective range  [0e+00, 0e+00]
  Bounds range     [0e+00, 0e+00]
  RHS range        [1e+00, 1e+00]
Iteration    Objective       Primal Inf.    Dual Inf.      Time
       0   -0.0000000e+00   0.000000e+00   0.000000e+00      0s

Solved in 0 iterations and 0.00 seconds
Optimal objective -0.000000000e+00
Optimize a model with 7 rows, 4 columns and 12 nonzeros
Coefficient statistics:
  Matrix range     [1e+00, 1e+00]
  Objective range  [8e+05, 8e+05]
  Bounds range     [0e+00, 0e+00]
  RHS range        [1e+00, 1e+00]
Iteration    Objective       Primal Inf.    Dual Inf.      Time
       0    1.5639580e+36   1.000000e+31   1.563958e+06      0s
       1    7.8291063e+05   0.000000e+00   0.000000e+00      0s

Solved in 1 iterations and 0.00 seconds
Optimal objective  7.829106250e+05
Warning: variable name "lambda_0 1" has a space
Warning: to let Gurobi read it back, use rlp format
Optimize a model with 7 rows, 6 columns and 20 nonzeros
Coefficient statistics:
  Matrix range     [1e+00, 1e+00]
  Objective range  [8e+05, 8e+05]
  Bounds range     [0e+00, 0e+00]
  RHS range        [1e+00, 1e+00]
Iteration    Objective       Primal Inf.    Dual Inf.      Time
       0    1.5535094e+36   8.000000e+30   1.553509e+06      0s
       1    7.8291063e+05   0.000000e+00   0.000000e+00      0s

Solved in 1 iterations and 0.00 seconds
Optimal objective  7.829106250e+05
Warning: variable name "lambda_0 1" has a space
Warning: to let Gurobi read it back, use rlp format
Optimize a model with 7 rows, 8 columns and 26 nonzeros
Coefficient statistics:
  Matrix range     [1e+00, 1e+00]
  Objective range  [6e+05, 8e+05]
  Bounds range     [0e+00, 0e+00]
  RHS range        [1e+00, 1e+00]
Iteration    Objective       Primal Inf.    Dual Inf.      Time
       0    1.1831185e+36   6.000000e+30   1.183119e+06      0s
       1    7.8291063e+05   0.000000e+00   0.000000e+00      0s

Solved in 1 iterations and 0.00 seconds
Optimal objective  7.829106250e+05
Warning: variable name "lambda_0 1" has a space
Warning: to let Gurobi read it back, use rlp format
Optimize a model with 7 rows, 10 columns and 30 nonzeros
Coefficient statistics:
  Matrix range     [1e+00, 1e+00]
  Objective range  [2e+05, 8e+05]
  Bounds range     [0e+00, 0e+00]
  RHS range        [1e+00, 1e+00]
Iteration    Objective       Primal Inf.    Dual Inf.      Time
       0    4.6451978e+35   4.000000e+30   4.645198e+05      0s
       2    1.0143577e+06   0.000000e+00   0.000000e+00      0s

Solved in 2 iterations and 0.00 seconds
Optimal objective  1.014357688e+06
Warning: variable name "lambda_0 1" has a space
Warning: to let Gurobi read it back, use rlp format
Optimize a model with 7 rows, 10 columns and 30 nonzeros
Coefficient statistics:
  Matrix range     [1e+00, 1e+00]
  Objective range  [2e+05, 8e+05]
  Bounds range     [0e+00, 0e+00]
  RHS range        [1e+00, 1e+00]

Solved in 2 iterations and 0.00 seconds
Optimal objective  1.014357688e+06
Warning: variable name "lambda_0 1" has a space
Warning: to let Gurobi read it back, use rlp format
